Si8 
1.0
5.4437022208999997e+00 0.0000000000000000e+00 0.0000000000000000e+00 
0.0000000000000000e+00 5.4437022208999997e+00 0.0000000000000000e+00 
0.0000000000000000e+00 0.0000000000000000e+00 5.4437022208999997e+00 
Si 
8 
Cartesian
   0.0456077791    5.4083801209    5.4103900000
   1.3449700000    4.0725600000    4.0839600000
   5.3886186209    2.7529600000    2.7035200000
   1.4051100000    1.4755900000    1.3714800000
   2.7723100000    0.0333489000    2.7296400000
   4.0085600000    4.0410200000    1.3146200000
   2.6525900000    2.6524700000    5.4167772209
   4.1570400000    1.3384800000    4.1881300000
